
 102   30
  10   10   10   10   10   10   10   10   10   10   10   10   10   10   10   10   10   10   10   10   10   10   10   10   10   10   10   10   10   10

   0   0   0   0   0   0   0   0   0   0   0   0   0   0   0   0   0   0   0   0   0   0   0   0   0   0   0   0   0   0   0  18 2 3 4 6 7 8 10 11 12 13 14 16 17 18 19 22 26 33 
   5   0   0   0   0   1   0   0   0   0   0   0   0   0   0   0   0   0   0   0   0   0   0   0   4   0   0   0   0   0   0   9 45 39 38 32 25 23 21 15 5 
   1   0   0   0   0   0   1   0   0   0   0   0   0   0   1   2   0   0   0   0   1   0   0   0   0   2   0   0   0   0   0  10 69 62 44 40 37 30 29 24 15 9 
  10   0   0   0   0   0   0   0   0   0   0   0   0   0   0   4   0   0   1   0   0   1   0   5   0  10   0   0   0   1   0  19 89 68 62 58 56 55 53 50 49 47 46 45 44 41 37 35 31 28 27 
  10   0   0   0   0   0   0   0   0   0   0   0   1   0   5   0   0   0   4   0   0   0   0   0   0   8   0   3   1   0   0  18 98 69 68 62 59 58 56 53 51 50 49 48 46 43 40 35 28 20 
   2   0   0   1   1   0   0   0   0   0   1   0   0   0   0   0   0   0   0   0   7   0   0   5   7   5   0   0   0   0   0  17 101 67 66 59 58 56 55 53 52 51 47 45 40 36 31 28 27 
   4   0   0   0   0   0   0   0   0   0   0   0   0   0   0   0   0   0   8   0   0   0   0   0   0  10   0   0   0   0   1  15 98 62 57 56 53 52 49 46 45 43 41 40 35 28 20 
   9   0   0   0   0   0   0   0   0   0   0   0   0   0   9   0   0   0   0   0   0   0   1   0   0   6   0   4   8   0   0  13 58 57 56 52 51 48 47 45 40 39 35 27 24 
   5   0   0   0   0   0   0   0   0   0   0   0   0   0   5   0   0   0   0   0   0   0   0   0   8   0   0   0   0   0   0  20 101 100 99 89 68 66 63 60 58 57 56 55 53 50 49 46 45 43 41 28 
   3   0   1   0   0   0   0   1   0   0   0   4   0   0   0   0   1   0   0   0   0   0   0   0   0   0   0   0   0   0   0  20 101 100 99 86 69 68 66 62 60 56 51 49 48 47 46 45 43 40 38 28 
   5   0   9  10   0   0   0   0   0   0   0   0   0   0   0   0   0   0   0   0   0   0   0   0   0   0   0   0   7   0   0  16 101 99 89 67 63 62 58 57 55 52 46 43 41 37 28 25 
   9   0   0   0   0   0   0   0   0   0   0   0   0   0   0   0   0   3   0   0   0   0   0   0   0   0   0   0   0   0   0  14 69 68 66 59 58 50 49 46 45 43 41 34 28 20 
   3   0   0   0   0   0   0   0   0   0   0   0   8   0   0   0   0   5   0   1   0   0   0   0   0   0   3   0   0   8   0  25 101 99 96 92 90 89 86 82 69 66 65 64 63 62 61 57 55 54 50 49 48 47 46 45 36 
   4   0   5   0   0   0   9   5   0   0   4   0   0   0   0   0   0   0   0   0  10   0   0   0   0   0   0   0   0   0   0  18 101 97 92 86 82 67 66 63 62 59 57 55 51 50 46 45 42 28 
   3   0   5   0   0   0   0   0   0   0   0   5   0   0   7   4   0   0   0   0   0   0   0   0   0   0   0   6   0   0   0  12 101 99 89 63 60 58 56 49 46 43 35 28 
  10   0   0   0   0   0   0   3   0   0   0   0   0   0   0   0   0   0   0   6   0   0   0   0   3   0   0   0   0   0   0  11 98 68 59 54 53 50 46 45 43 41 20 
  10   0   0   0   0   0   0   6   0   1   0   0   0   0   0   0   0   0   0   0   8   0   0   0   0   0   0   0  10   0   0  13 101 99 90 88 68 62 60 56 53 49 43 39 38 
   1   0   0   0   0   0   0   0   0   0   0   0   0   1   0   0   0   0   0   0   0   0   0   0   5   0   0   0   0   7   0  20 98 96 94 93 91 90 86 83 82 81 69 67 66 65 61 60 59 54 47 45 
   4   0   0   2   0   0   0   0   0   0   0   0   0   0   0   0   0   0   0   6   4   0   0   0   0   0   3   6   0   0   0  19 100 99 97 93 92 90 89 86 85 83 82 81 78 69 67 66 65 64 45 
   6   0   0   0   0   0   0   0   0   0   0   0   0   8   0   0   0   0   0   0   0   0   0   0   0   0   0   0   0   0   0  23 101 99 97 96 95 94 92 91 90 89 87 86 84 83 82 80 76 74 71 70 67 60 55 
   7   0   0   0   0   0   4   0   2   4   6   0   0   3   0   0   0   4   5   0   0   0   0   0   9   0   0   0   0   0   0  19 101 95 94 92 90 89 87 86 84 83 82 80 77 76 75 74 69 60 47 
   8   0   0   0   5   0   0   6   0   0   0   0  10   0   0   0   0   0   0   0   0   0   0   0   0   0   0   0   0   5   0  14 96 94 92 91 84 82 76 70 68 64 62 55 53 52 
   1   1   0   0   0   0   0   0   0   0   0   0   0   0   0   0   0   0   0   0   0   0   0   0   0   5   0   0   3   0   0  18 100 97 94 93 90 89 87 83 82 79 78 71 68 66 63 58 57 55 
   7   0   0   0   0   0   5   0   0   0   0   5   0   6   0   0   0   0   0   0   0   0   0   0   0   0   0   0   0   0   0  15 99 94 91 85 83 82 76 75 74 71 68 64 63 59 50 
  10   0   0   0   0   0   0   4   0   0   4   0   0   0   0   0   0   0   0   0   0   0   0   0   0   4   0   0   4   0   0  14 100 95 92 90 87 86 84 83 82 81 66 60 54 47 
   4   0   5   0   0   0   0   0   0   0   0   0   0   0   0   0   0   0   0   0   4   0   0   0   0   0   0   0   0   0   0  14 95 94 93 92 90 89 87 86 85 84 81 77 69 40 
   8   0   0   0   0   0   0   0   0   0   8   0   0   0   0   0   0   8   0   0   0   0   0   4   0   0   5   0   0   0   0  17 99 96 95 93 92 90 86 85 82 80 79 77 76 71 70 69 60 
   9   0   0   5   0   0   0   0   0   0   0   0   0   0   0   0   0   0   0   0   8   0   8   0   3   0   0   0   0   0   0  14 94 93 91 90 85 84 83 81 80 79 77 65 61 54 
  10   0   0   0   9   0   0   6   0   0   0   0   0   0   0   0   0   0   6   4   0   0   6   0   0   0   0   0   0   0   0  12 96 93 91 89 88 86 83 82 79 76 70 45 
   6   0   0   0   0   0   0   6   0   0  10   0   0   0   0   0   5   0   0   0   0   0   0   0   0   0   0   0   0   0   0  13 92 89 87 86 81 80 79 78 73 66 65 64 54 
  10   0   0   0   0   0   0   0   0   0   0   0   0   0   8   0   0   0   0   0   0   0   0   7   6   0   0   0   0   0   5  10 98 95 91 90 82 78 73 64 57 54 
  10   0   6   0   0   0   0   0   0   0   8   0   0   0   0   0   0   0   0   0   0   6   0   0   0   0   0   0   9   0   9  10 90 85 81 78 73 70 68 62 56 54 
   3   0   7   0   0   0   0   4   0   0   6   0   7   5   0   0   0   0   0   0   0   0   0   0   0   0   0   0   0   0   0  15 96 95 93 91 89 82 81 78 75 74 73 72 71 69 65 
   1   0  10   0   0   0   0   0   0   0   0   0   4   0   0   0   0   0   8   0   0   0   6   5   0   0   0   0   0   3   0  12 98 96 91 87 86 85 84 78 73 72 70 54 
   3   0   0   0   0   0   0   0   0   0   0   8   0   0   0   0   0   0   7   0   0   0   0   4   0   0  10   0   0   0   0  11 100 91 88 83 82 79 78 73 70 66 54 
   8   0   0   9   0   0   7   0   7   0   4   0   0   0   0   0   0   0   0   0   0   0   0   0   0   0   8   0   0   5   0  13 100 97 94 84 81 79 78 76 75 74 71 70 68 
   9   0   0   0   0  10   0   0   0   0   0   0   0   0   0   0   8   0   0   0   0   0   0   0   0   7   0   0   0   3   0  10 90 86 83 82 79 78 77 72 70 54 
   3   0   0   0   0   0   0   0   0   0   0   4   6   0   0   0   0   0   0   0   0   0   0   0   0   0   0   6   0  10   6   9 92 89 85 80 79 76 73 71 55 
   1   0   7   0   0   0   0   0   0   4   6   0   4   0   0   0   0   0   0   0   0   0   0   0   3   0   0   0   0   0   7   8 92 84 82 78 76 75 64 63 
   9   0   0   0   0   0   0   6   0   0   5   3   0   7   0   0   0   0   0   0   0   0   0   0   0   0   0   0   0   0   4   5 79 78 65 64 54 
   4   4   0   7   7   0   0  10   0   0   0   0   0   0   0   0   0   0   0   0   6   4   0   0   0   0   0   0   0   0   0  10 93 88 81 79 78 77 76 75 72 71 
   7   0   0   0   5   0   0   0   0   0   0   0   0   0   0   0   0   0   5   0   0   0   0   3   0   0   7   0   5   0   0   9 88 83 81 79 77 75 73 70 64 
   2   0   0   0   0   0   0   0   0   0   0   0   0   0   0   0   0   0   0   0   0   0   0   0   5   0   0   0   0   0   0   9 96 95 94 92 91 76 72 71 70 
  10   0   0   0   6   0   0   0   0   0   0   0   5   0   0   0   0   0   0   0   9   0   0   0   0   0   0   0   0   0   0   6 84 79 76 74 71 57 
   2   0   0   4   0   0   0   8   0   0   0   0  10   0   0   0   0   0   0   0   0   0   9   0   0   0   0   5   0   0   0   8 84 80 77 75 74 73 72 71 
   6   0   0   0   0   0   9   9   0   0   0   0   0   0   0   0   0   0   0   0   0   0   0   0   6   0   0   0   0   0   0   8 94 93 84 80 77 74 73 70 
   7   0   0   6   5   0   0   7   0   0   0   6   0   0   0   0   0   0   0   0   0   7   0  10   0   0   0   0   5   0   0   8 97 85 79 78 73 72 71 70 
   1   0   0   9   9   0   0   0   0   0   0   0   0   0   0   0   0   0   0   0   0  10   0   0   0   0   0   0   0   6   0   8 91 85 83 78 77 76 75 74 
  10   0   0   0   0   0   0   0  10   0   0   0   0   0   4   0   0   0   0   0   0   0   7   5   0   0   0   0   0   0   0   7 97 87 80 78 75 74 67 
   6   0   0   8   0   0   0   7   0   0   0   0   0   0   0   7   0   0   0   0   0   0   0   0   0   0   5   0   0   0   0   7 88 81 80 79 78 73 72 
   5   0   0   0   0   0   0   4   0   0   0   0   0   0   0   0   0   0   0   0   0   0   0   0   7   0   0   0   5   0   0   7 96 80 79 76 73 71 70 
   1   0   0   0   0   0   0   4   8   0   0   0   0   0   0   0   0   0   0   0   0   0   0   0   0   0   0   0   0   0   0   7 93 87 86 79 77 74 71 
   6   5   3   0   0   0   0   0   0  10   0   0   0   6   5   0   0   0   0   0   0   0   0   7   0   0   0   8   0   0   0   6 86 85 83 78 74 73 
   7   0   0   0   0   0   0   0   0   0   0   0   0   0   0   0   6   0   0   0   7   0   0   0   0   0   0   8   7   0   0   4 76 75 74 71 
   4   0   0   0   2   0   0   0   0   0   0   8   0   0   9   0   0   0   0   0   4   0   0   0   8   0   0   0   7   0   9   4 81 77 75 72 
   9   0   0   0   0   0   4   0   0   0   0   9   0   0   0   0   0   0   0   0   5   0   0   0   0   0   8   0   0   0   0   4 82 75 72 71 
   4   0   8   0   0   0   0   0   0   7   0  10   0   0   0   0   0   0   0   0   8   0   7   0   0   0   0   7   0   0   4   3 80 77 70 
   8   0   0   0   0   0   4   0   0   0   7   0   0   0   0   0   0   0   0   0   0   0   0   0   7  10   0   0   0   0   0   3 74 73 70 
   3   0   0   0   0   0   0   0   0   0   0   0   0   0   0   0   0   0   0   0   0   0   0   0   0   0   0   0   0   0   0   3 89 87 70 
   9   0   0   0   0   0   0   0   0   0   9   0   0   0   0   0   0   0   0   7   0   0   3   0   0   0   5   0   0   0   7   2 73 64 
   3   0   0   0  10   0   6   5   0   0   0   0   0   0   0   0   0   0   0   0   0   0   0   0   0   0   4   0   0   0   0   2 74 73 
   4   0   0   0   0   0   0   0   0   0   0   0   0   0   0   0   0  10   0   0   0   0   0   6   0   0   0   0   0   6   0   2 95 72 
   3   0   0   0   5   8   9   0   0   0   0   0   0   0   0   7   0   0   0   0   0   0   0   0   0   0   0   0   0   0   0   2 98 70 
   3   0   9   0   0   0   5   0   0   7   0   0   0   0   4   0   0   0   0   0   0   0   0   0   0   0   0  10   0   5   0   1 72 
   7   7   0   0   0   0   0   0   0   0   0   0   0   0   0   0   0   0   0   0   0   0   0   8   0   3   0   0   0   0   0   1 70 
   9   0   0   0   0   0   5   0   0   0   0   0   0   0   0   0   0   0   0   0   0   0   0   0   0   0   0   0   0   0   0   1 76 
   8   0   0   0   0   0   7   0   0   0   0   5   0   0   0   0   0   0   0   0   0   0   4   0   0   0   9   0   0   0   0   1 73 
   3   0   0   0   0   8   0   0   0   0   4   0   0   0   0   7   0   0   0   0   0   8   0   0   0   0   0   0   0   0   0   1 77 
   3   0   0   0   0   0   0   0   0   0   0   0   0   0   0   0   0   0   0   0   0   0   0   9   0   0   0   4   0   8   8   1 88 
   8   0   6   0   0   0   0   0   0   0   0   0   4   0   0   0   0   0   6   0   0   0   0   5   4   0   6   0   0   0   0   1 102
  10   0   0   6   0   0   0   0   0   8   0   0   0   6   0   4   0   5   0   4   0   9   0   0   0   0   0   0   0   0   0   1 102
   5   0   0   0   0   5   0   0   0   0   0   0   0   0   0   0   0   0   0   0   0   0   0   0   0   5   0   0   0   0   0   1 102
   2   0   0   0   0   0   0   0   0   0   0   0   0   0   0   0   0   0   0   0   0   0   0   0   0   0   0   0   0   0   0   1 102
  10   0   0   0   0   0   6   0   0   7   0   0   0   0   0   0   0   0   0   0   0   4   0   0   0   0   0   0   0   5   0   1 102
   3   0   0   0   8   0   7   0   0   0   0   0   6   0   0   0   8   0   0   0   0   0   0   0   8   0   0   0   0   0   0   1 102
   4   0   5   0   0   0   0   9   0   0   0   0   0   0   0   0   0   0   0   0   0   5   0   0   0   0   0   0   0   0   0   1 102
   2   0   0   0   0   0   0   0   0   0   0   0   0   0   7   6   0   0   0   0   0   0   0   0  10   0   0   0   0   0   0   1 102
   3   0   0   0   0   0   9   0   0   0   0   0   0   7   0  10   0   0   0   0   0   0   7   0   0   0   0   0   0   0   0   1 102
   6   0   0   0   0   0   0   0   4   0   0   0   0   0   0   0   0   0   0   0   0   0   0   5   0   0   0   0   0   0   0   1 102
   4   0   0   0   0   0   0   0   0   0   0   0   0   0   0   0   0   0   0   0   0   0   0   0   0   0   0   0   0   0   0   1 102
   7   0   0   0   0   0   5   2   0   0   0   0   0   0   0   0   0   0   0   6   0   0   0   0   0   0   0   0   0   0   0   1 102
  10   0   0   0   0   0   5   0   0   6   0   0   0   0   0   7   0   0   0   0   0   0   0   0   0   0   0   0   0   0   0   1 102
  10   0   0   0   0   0   0   0   0   0   0   0   0   0   0   0   0   0   0   0   4   0   0   0   0   0   0  10   0   0   0   1 102
   7   0   0   0   0   0   0   0  10   0   0   0   0   0   0   0   0   4   0  10   0   0   0   0   0   0   0   0   0   0   0   1 102
   9   9   0   0   0   0   0   0   0   0   8   0   0   0   6   0   0   0   0   0   5   0   0   0   5   0   0   4   0   0   0   1 102
   6   0   0   0   0   0   0   0   0   0   0   0   0   0   0   0   0   0   0   0   0   0   0   0   0   0   0   0   0   0   0   1 102
   9   0   4   6   0   0   6   6   0   0   0   0   5   0   0   0   0   0   0   0   0   0   0   0   0   0   0   0   0   0   0   1 102
   4   0   0   0   0   0   0   0   0   0   0   0   0   0   8   0   0   0   0  10   0   0   0   0   0   0   0   0   0   0   0   1 102
   8   0   0   0   0   0   0   0   0   0   0   0   0   0   0   0   0   8   0   0   0   0   6   0   0   0   4   0   0   0   0   1 102
   7   7   0   0   0   4   0   0   3   0   0   0   7   9   0   0   0   0   0   0   0   0   0   0   0   0   0   0   0   0   0   1 102
   2   0   0   0   0   0   0   0   0   0   0   3   0   0   0   0   0   0   0   0   0   0   0   0   0   0   0   0   4   0   0   1 102
   1   0   0   5   0   0   0   0   0   0   0   0   8   0   0   0   8   0   0   0   0   0   0   0   0   4   0   7   0   0   0   1 102
   3   0   0   3   0   0   0  10   4   0   0   8   4   0   0   8   0   0   0   0   0   0  10   0   0   5   7   4   9   0   0   1 102
   3   0   0   9   0   0   7   0   4   0   0   0   0   0   0   0   0   0   0   0   0   0   0   0   0   0   0   4   0   6   0   1 102
  10   0   0   0   0   0   0   0   8   0   0   0   0   0   0   0   0   0   0   0   0   0   0   0   0   0   0   0   0   0   0   1 102
   3   0   0   0   0   0   0   0   0   0   0   0   0   7   0   0   0   7   0   0   0   0   0   0   0   0   0   0   0   0   0   1 102
   2   0   0   0   0   0   0   0   0   0   0   0   7   7   0   0   0   0   0   0   0   0   0   8   0   0   0   0   0  10   0   1 102
   6   8   0   0   0   0   0   0   0   0   0   0   0   0   0   0   0   0   0   0   0   0   4   0   0   0   0   0   0   8   0   1 102
   1   0   0   0   0   0   0  10   0   0   0   0   0   0   0   0   0   0   0   0   0   0   0   0   0   0   0   0   0   0   0   1 102
   1   0   0   5   0   0   0   0   0   0   0   0   0   0   0   0   0   0  10   0   0   0   0   0   0   0   0   0   0   0   0   1 102
   2   7   0   7   0   0   0   0   0   0   0   0   0   0   0   6   0   0   0   0   0   0   0   0   0   0   0   0   0   0   0   1 102
   0   0   0   0   0   0   0   0   0   0   0   0   0   0   0   0   0   0   0   0   0   0   0   0   0   0   0   0   0   0   0   0 
